1 30 496 2000 4 3000
100000
100000
100 100
100 100
100 100
100 100
100 100
100 100
100 100
100 100
100 100
100 100
100 100
100 100
100 100
100 100
100 100
100 100
100 100
100 100
100 100
100 100
100 100
100 100
100 100
100 100
100 100
100 100
100 100
100 100
100 100
100 100
   0    1  187
   0    2  193
   0    3  176
   0    4  141
   0    5  160
   0    6  137
   0    7  245
   0    8   50
   0    9  105
   0   10  206
   0   11   70
   0   12   76
   0   13  186
   0   14   75
   0   15  233
   0   16  140
   0   17  121
   0   18   99
   0   19  181
   0   20  120
   0   21  125
   0   22  212
   0   23  110
   0   24   68
   0   25  132
   0   26   47
   0   27  169
   0   28   95
   0   29   23
   0   30   78
   0   31  201
   1    2    6
   1    3   72
   1    4  129
   1    5  258
   1    6  119
   1    7   77
   1    8  226
   1    9  193
   1   10  216
   1   11  217
   1   12  174
   1   13  211
   1   14  162
   1   15   45
   1   16   96
   1   17  207
   1   18  116
   1   19  285
   1   20  146
   1   21  152
   1   22   41
   1   23  197
   1   24  177
   1   25   80
   1   26  224
   1   27  218
   1   28  243
   1   29  207
   1   30  248
   1   31   88
   2    3   78
   2    4  135
   2    5  264
   2    6  125
   2    7   83
   2    8  232
   2    9  199
   2   10  222
   2   11  223
   2   12  180
   2   13  217
   2   14  168
   2   15   51
   2   16  102
   2   17  213
   2   18  122
   2   19  291
   2   20  152
   2   21  158
   2   22   47
   2   23  203
   2   24  183
   2   25   86
   2   26  230
   2   27  224
   2   28  249
   2   29  213
   2   30  254
   2   31   94
   3    4  165
   3    5  287
   3    6  155
   3    7  148
   3    8  201
   3    9  217
   3   10  268
   3   11  223
   3   12  149
   3   13  256
   3   14  149
   3   15  103
   3   16  129
   3   17  232
   3   18   90
   3   19  314
   3   20  173
   3   21  103
   3   22   73
   3   23  223
   3   24  191
   3   25   98
   3   26  220
   3   27  258
   3   28  207
   3   29  199
   3   30  220
   3   31   30
   4    5  174
   4    6   46
   4    7  161
   4    8  190
   4    9  111
   4   10  151
   4   11  147
   4   12  160
   4   13  137
   4   14  137
   4   15  173
   4   16   72
   4   17  124
   4   18  130
   4   19  202
   4   20   66
   4   21  182
   4   22  166
   4   23  114
   4   24  102
   4   25   91
   4   26  163
   4   27  139
   4   28  226
   4   29  155
   4   30  218
   4   31  187
   5    6  174
   5    7  276
   5    8  197
   5    9   88
   5   10  104
   5   11  129
   5   12  225
   5   13  108
   5   14  207
   5   15  300
   5   16  200
   5   17   97
   5   18  227
   5   19   29
   5   20  157
   5   21  271
   5   22  295
   5   23   72
   5   24  108
   5   25  214
   5   26  135
   5   27   69
   5   28  249
   5   29  159
   5   30  225
   5   31  311
   6    7  153
   6    8  186
   6    9  110
   6   10  151
   6   11  145
   6   12  153
   6   13  137
   6   14  130
   6   15  163
   6   16   62
   6   17  124
   6   18  121
   6   19  201
   6   20   64
   6   21  174
   6   22  156
   6   23  114
   6   24  101
   6   25   81
   6   26  160
   6   27  139
   6   28  220
   6   29  151
   6   30  213
   6   31  177
   7    8  289
   7    9  224
   7   10  209
   7   11  262
   7   12  241
   7   13  217
   7   14  225
   7   15   89
   7   16  141
   7   17  237
   7   18  187
   7   19  303
   7   20  182
   7   21  228
   7   22  111
   7   23  225
   7   24  218
   7   25  140
   7   26  275
   7   27  227
   7   28  312
   7   29  263
   7   30  314
   7   31  162
   8    9  151
   8   10  254
   8   11  112
   8   12   99
   8   13  234
   8   14  112
   8   15  271
   8   16  186
   8   17  167
   8   18  127
   8   19  214
   8   20  170
   8   21  134
   8   22  246
   8   23  156
   8   24  116
   8   25  173
   8   26   71
   8   27  215
   8   28   57
   8   29   62
   8   30   33
   8   31  226
   9   10  121
   9   11   80
   9   12  159
   9   13  101
   9   14  139
   9   15  237
   9   16  133
   9   17   34
   9   18  157
   9   19  115
   9   20   89
   9   21  203
   9   22  228
   9   23   25
   9   24   42
   9   25  145
   9   26   98
   9   27   82
   9   28  199
   9   29  109
   9   30  180
   9   31  241
  10   11  183
  10   12  251
  10   13   64
  10   14  228
  10   15  253
  10   16  176
  10   17  129
  10   18  233
  10   19  122
  10   20  149
  10   21  285
  10   22  257
  10   23  107
  10   24  143
  10   25  196
  10   26  200
  10   27   58
  10   28  301
  10   29  212
  10   30  283
  10   31  289
  11   12  138
  11   13  164
  11   14  125
  11   15  263
  11   16  159
  11   17   96
  11   18  150
  11   19  151
  11   20  123
  11   21  187
  11   22  247
  11   23   84
  11   24   52
  11   25  161
  11   26   59
  11   27  143
  11   28  162
  11   29   71
  11   30  141
  11   31  247
  12   13  230
  12   14   71
  12   15  218
  12   16  144
  12   17  175
  12   18   74
  12   19  248
  12   20  146
  12   21   95
  12   22  193
  12   23  166
  12   24  123
  12   25  125
  12   26  123
  12   27  221
  12   28  117
  12   29  100
  12   30  120
  12   31  174
  13   14  208
  13   15  251
  13   16  163
  13   17  110
  13   18  215
  13   19  132
  13   20  131
  13   21  266
  13   22  251
  13   23   89
  13   24  123
  13   25  182
  13   26  182
  13   27   54
  13   28  281
  13   29  192
  13   30  263
  13   31  278
  14   15  207
  14   16  124
  14   17  155
  14   18   73
  14   19  232
  14   20  123
  14   21  111
  14   22  185
  14   23  147
  14   24  105
  14   25  109
  14   26  119
  14   27  199
  14   28  138
  14   29   97
  14   30  136
  14   31  174
  15   16  141
  15   17  251
  15   18  159
  15   19  328
  15   20  190
  15   21  192
  15   22   66
  15   23  241
  15   24  223
  15   25  126
  15   26  270
  15   27  258
  15   28  286
  15   29  253
  15   30  293
  15   31  116
  16   17  147
  16   18  103
  16   19  227
  16   20   85
  16   21  155
  16   22  131
  16   23  137
  16   24  118
  16   25   56
  16   26  170
  16   27  166
  16   28  215
  16   29  157
  16   30  212
  16   31  151
  17   18  173
  17   19  123
  17   20  103
  17   21  219
  17   22  242
  17   23   33
  17   24   59
  17   25  159
  17   26  114
  17   27   90
  17   28  216
  17   29  125
  17   30  197
  17   31  256
  18   19  252
  18   20  125
  18   21   66
  18   22  133
  18   23  164
  18   24  125
  18   25   76
  18   26  145
  18   27  211
  18   28  141
  18   29  122
  18   30  148
  18   31  115
  19   20  184
  19   21  295
  19   22  322
  19   23   98
  19   24  133
  19   25  241
  19   26  153
  19   27   93
  19   28  267
  19   29  179
  19   30  241
  19   31  337
  20   21  177
  20   22  181
  20   23   94
  20   24   78
  20   25   99
  20   26  139
  20   27  128
  20   28  208
  20   29  132
  20   30  198
  20   31  196
  21   22  162
  21   23  210
  21   24  169
  21   25  126
  21   26  172
  21   27  260
  21   28  131
  21   29  148
  21   30  148
  21   31  127
  22   23  233
  22   24  209
  22   25  109
  22   26  252
  22   27  257
  22   28  259
  22   29  233
  22   30  268
  22   31   86
  23   24   49
  23   25  150
  23   26  101
  23   27   67
  23   28  205
  23   29  114
  23   30  185
  23   31  247
  24   25  124
  24   26   70
  24   27  107
  24   28  163
  24   29   74
  24   30  146
  24   31  215
  25   26  168
  25   27  184
  25   28  197
  25   29  151
  25   30  197
  25   31  121
  26   27  159
  26   28  124
  26   29   43
  26   30   99
  26   31  245
  27   28  264
  27   29  173
  27   30  245
  27   31  281
  28   29  111
  28   30   56
  28   31  231
  29   30   91
  29   31  223
  30   31  244
